benchmark/results/graph__10-1000-0.10-03_3/graph__10-1000-0.10-03_3_QuintonOs_Benders_primal_sub.lp
\ This file has been generated by DOcplex
\ ENCODING=ISO-8859-1
\Problem name: Quinton Bounded Benders_primal_sub

Maximize
 obj: tau
Subject To
 c1: tau <= 0.000920810313
 c2: y_a0_proc_1 - tau = 0
 c3: y_a0_proc_1 <= 1
 c4: tau <= 0.003496503497
 c5: y_a1_proc_0 + y_a1_proc_1 + y_a1_proc_2 - tau = 0
 c6: y_a1_proc_0 <= 0
 c7: y_a1_proc_1 <= 0
 c8: y_a1_proc_2 <= 1
 c9: tau <= 0.001285347044
 c10: y_a2_proc_0 + y_a2_proc_1 + y_a2_proc_2 - tau = 0
 c11: y_a2_proc_0 <= 0
 c12: y_a2_proc_1 <= 0
 c13: y_a2_proc_2 <= 1
 c14: tau <= 0.001834862385
 c15: y_a3_proc_0 + y_a3_proc_1 - tau = 0
 c16: y_a3_proc_0 <= 1
 c17: y_a3_proc_1 <= 0
 c18: tau <= 0.001302083333
 c19: y_a4_proc_0 + y_a4_proc_1 + y_a4_proc_2 - tau = 0
 c20: y_a4_proc_0 <= 1
 c21: y_a4_proc_1 <= 0
 c22: y_a4_proc_2 <= 0
 c23: tau <= 0.003278688525
 c24: y_a5_proc_0 + y_a5_proc_1 + y_a5_proc_2 - tau = 0
 c25: y_a5_proc_0 <= 1
 c26: y_a5_proc_1 <= 0
 c27: y_a5_proc_2 <= 0
 c28: tau <= 0.001097694841
 c29: y_a6_proc_0 + y_a6_proc_1 + y_a6_proc_2 - tau = 0
 c30: y_a6_proc_0 <= 0
 c31: y_a6_proc_1 <= 0
 c32: y_a6_proc_2 <= 1
 c33: tau <= 0.001418439716
 c34: y_a7_proc_0 + y_a7_proc_1 - tau = 0
 c35: y_a7_proc_0 <= 0
 c36: y_a7_proc_1 <= 1
 c37: tau <= 0.001137656428
 c38: y_a8_proc_0 + y_a8_proc_1 - tau = 0
 c39: y_a8_proc_0 <= 1
 c40: y_a8_proc_1 <= 0
 c41: tau <= 0.001477104874
 c42: y_a9_proc_1 + y_a9_proc_2 - tau = 0
 c43: y_a9_proc_1 <= 1
 c44: y_a9_proc_2 <= 0
 c45: u_a0 - u_a1 - 776 y_a1_proc_0 - 531 y_a1_proc_1 - 286 y_a1_proc_2 >= 0
 c46: u_a2 - u_a1 - 776 y_a1_proc_0 - 531 y_a1_proc_1 - 286 y_a1_proc_2 >= 0
 c47: u_a0 - u_a3 - 545 y_a3_proc_0 - 939 y_a3_proc_1 >= 0
 c48: u_a3 - u_a4 - 768 y_a4_proc_0 - 1286 y_a4_proc_1 - 1201 y_a4_proc_2 >= -1
 c49: u_a5 - u_a2 - 988 y_a2_proc_0 - 736 y_a2_proc_1 - 778 y_a2_proc_2 >= 0
 c50: u_a6 - u_a5 - 305 y_a5_proc_0 - 1005 y_a5_proc_1 - 1122 y_a5_proc_2 >= -1
 c51: u_a7 - u_a2 - 988 y_a2_proc_0 - 736 y_a2_proc_1 - 778 y_a2_proc_2 >= 0
 c52: u_a1 - u_a8 - 879 y_a8_proc_0 - 811 y_a8_proc_1 >= -1
 c53: u_a4 - u_a9 - 677 y_a9_proc_1 - 1128 y_a9_proc_2 >= 0
 c54: u_a2 - u_a5 - 305 y_a5_proc_0 - 1005 y_a5_proc_1 - 1122 y_a5_proc_2 >= -1
 c55: - 622 y_a7_proc_0 - 705 y_a7_proc_1 >= -1
 c56: u_a9 - u_a8 - 879 y_a8_proc_0 - 811 y_a8_proc_1 >= 0
 c57: u_a1 - u_a0 - 1086 y_a0_proc_1 >= -1
 c58: u_a4 - u_a6 - 1222 y_a6_proc_0 - 908 y_a6_proc_1 - 911 y_a6_proc_2 >= 0
 c59: u_a9 - u_a7 - 622 y_a7_proc_0 - 705 y_a7_proc_1 >= 0
 c60: u_a0 - u_a6 - 1222 y_a6_proc_0 - 908 y_a6_proc_1 - 911 y_a6_proc_2 >= -1
 c61: u_a8 - u_a7 - 622 y_a7_proc_0 - 705 y_a7_proc_1 >= 0
 c62: u_a4 - u_a5 - 305 y_a5_proc_0 - 1005 y_a5_proc_1 - 1122 y_a5_proc_2 >= -1
 c63: - 1222 y_a6_proc_0 - 908 y_a6_proc_1 - 911 y_a6_proc_2 >= -1
 c64: u_a1 - u_a0 - 1086 y_a0_proc_1 >= -1299
 c65: u_a0 - u_a1 - 531 y_a1_proc_1 >= -1274
 c66: u_a2 - u_a0 - 1086 y_a0_proc_1 >= -1299
 c67: u_a0 - u_a2 - 736 y_a2_proc_1 >= -1274
 c68: u_a3 - u_a0 - 1086 y_a0_proc_1 >= -1274
 c69: u_a0 - u_a3 - 939 y_a3_proc_1 >= -1299
 c70: u_a4 - u_a0 - 1086 y_a0_proc_1 >= -1274
 c71: u_a0 - u_a4 - 1286 y_a4_proc_1 >= -1299
 c72: u_a5 - u_a0 - 1086 y_a0_proc_1 >= -1274
 c73: u_a0 - u_a5 - 1005 y_a5_proc_1 >= -1299
 c74: u_a6 - u_a0 - 1086 y_a0_proc_1 >= -1299
 c75: u_a0 - u_a6 - 908 y_a6_proc_1 >= -1274
 c76: u_a7 - u_a0 - 1086 y_a0_proc_1 >= -1
 c77: u_a0 - u_a7 - 705 y_a7_proc_1 >= 0
 c78: u_a8 - u_a0 - 1086 y_a0_proc_1 >= -1299
 c79: u_a0 - u_a8 - 811 y_a8_proc_1 >= -1274
 c80: u_a9 - u_a0 - 1086 y_a0_proc_1 >= 0
 c81: u_a0 - u_a9 - 677 y_a9_proc_1 >= -1
 c82: u_a2 - u_a1 - 286 y_a1_proc_2 >= 0
 c83: u_a2 - u_a1 - 776 y_a1_proc_0 >= -2572
 c84: u_a2 - u_a1 - 531 y_a1_proc_1 >= -2572
 c85: u_a1 - u_a2 - 778 y_a2_proc_2 >= -1
 c86: u_a1 - u_a2 - 988 y_a2_proc_0 >= -2573
 c87: u_a1 - u_a2 - 736 y_a2_proc_1 >= -2573
 c88: u_a3 - u_a1 - 776 y_a1_proc_0 >= -1299
 c89: u_a3 - u_a1 - 531 y_a1_proc_1 >= -2585
 c90: u_a1 - u_a3 - 545 y_a3_proc_0 >= -1274
 c91: u_a1 - u_a3 - 939 y_a3_proc_1 >= -2560
 c92: u_a4 - u_a1 - 286 y_a1_proc_2 >= -1274
 c93: u_a4 - u_a1 - 776 y_a1_proc_0 >= -1274
 c94: u_a4 - u_a1 - 531 y_a1_proc_1 >= -2560
 c95: u_a1 - u_a4 - 1201 y_a4_proc_2 >= -1299
 c96: u_a1 - u_a4 - 768 y_a4_proc_0 >= -1299
 c97: u_a1 - u_a4 - 1286 y_a4_proc_1 >= -2585
 c98: u_a5 - u_a1 - 286 y_a1_proc_2 >= -1274
 c99: u_a5 - u_a1 - 776 y_a1_proc_0 >= -1274
 c100: u_a5 - u_a1 - 531 y_a1_proc_1 >= -2560
 c101: u_a1 - u_a5 - 1122 y_a5_proc_2 >= -1299
 c102: u_a1 - u_a5 - 305 y_a5_proc_0 >= -1299
 c103: u_a1 - u_a5 - 1005 y_a5_proc_1 >= -2585
 c104: u_a6 - u_a1 - 286 y_a1_proc_2 >= 0
 c105: u_a6 - u_a1 - 776 y_a1_proc_0 >= -2572
 c106: u_a6 - u_a1 - 531 y_a1_proc_1 >= -2572
 c107: u_a1 - u_a6 - 911 y_a6_proc_2 >= -1
 c108: u_a1 - u_a6 - 1222 y_a6_proc_0 >= -2573
 c109: u_a1 - u_a6 - 908 y_a6_proc_1 >= -2573
 c110: u_a7 - u_a1 - 776 y_a1_proc_0 >= -2585
 c111: u_a7 - u_a1 - 531 y_a1_proc_1 >= -1299
 c112: u_a1 - u_a7 - 622 y_a7_proc_0 >= -2560
 c113: u_a1 - u_a7 - 705 y_a7_proc_1 >= -1274
 c114: u_a8 - u_a1 - 776 y_a1_proc_0 >= -1299
 c115: u_a8 - u_a1 - 531 y_a1_proc_1 >= -2585
 c116: u_a1 - u_a8 - 879 y_a8_proc_0 >= -1274
 c117: u_a1 - u_a8 - 811 y_a8_proc_1 >= -2560
 c118: u_a9 - u_a1 - 286 y_a1_proc_2 >= -1274
 c119: u_a9 - u_a1 - 531 y_a1_proc_1 >= -1274
 c120: u_a1 - u_a9 - 1128 y_a9_proc_2 >= -1299
 c121: u_a1 - u_a9 - 677 y_a9_proc_1 >= -1299
 c122: u_a3 - u_a2 - 988 y_a2_proc_0 >= -1299
 c123: u_a3 - u_a2 - 736 y_a2_proc_1 >= -2585
 c124: u_a2 - u_a3 - 545 y_a3_proc_0 >= -1274
 c125: u_a2 - u_a3 - 939 y_a3_proc_1 >= -2560
 c126: u_a4 - u_a2 - 778 y_a2_proc_2 >= -1274
 c127: u_a4 - u_a2 - 988 y_a2_proc_0 >= -1274
 c128: u_a4 - u_a2 - 736 y_a2_proc_1 >= -2560
 c129: u_a2 - u_a4 - 1201 y_a4_proc_2 >= -1299
 c130: u_a2 - u_a4 - 768 y_a4_proc_0 >= -1299
 c131: u_a2 - u_a4 - 1286 y_a4_proc_1 >= -2585
 c132: u_a5 - u_a2 - 778 y_a2_proc_2 >= -1299
 c133: u_a5 - u_a2 - 988 y_a2_proc_0 >= -1299
 c134: u_a5 - u_a2 - 736 y_a2_proc_1 >= -2585
 c135: u_a2 - u_a5 - 1122 y_a5_proc_2 >= -1274
 c136: u_a2 - u_a5 - 305 y_a5_proc_0 >= -1274
 c137: u_a2 - u_a5 - 1005 y_a5_proc_1 >= -2560
 c138: u_a6 - u_a2 - 778 y_a2_proc_2 >= 0
 c139: u_a6 - u_a2 - 988 y_a2_proc_0 >= -2572
 c140: u_a6 - u_a2 - 736 y_a2_proc_1 >= -2572
 c141: u_a2 - u_a6 - 911 y_a6_proc_2 >= -1
 c142: u_a2 - u_a6 - 1222 y_a6_proc_0 >= -2573
 c143: u_a2 - u_a6 - 908 y_a6_proc_1 >= -2573
 c144: u_a7 - u_a2 - 988 y_a2_proc_0 >= -2585
 c145: u_a7 - u_a2 - 736 y_a2_proc_1 >= -1299
 c146: u_a2 - u_a7 - 622 y_a7_proc_0 >= -2560
 c147: u_a2 - u_a7 - 705 y_a7_proc_1 >= -1274
 c148: u_a8 - u_a2 - 988 y_a2_proc_0 >= -1299
 c149: u_a8 - u_a2 - 736 y_a2_proc_1 >= -2585
 c150: u_a2 - u_a8 - 879 y_a8_proc_0 >= -1274
 c151: u_a2 - u_a8 - 811 y_a8_proc_1 >= -2560
 c152: u_a9 - u_a2 - 778 y_a2_proc_2 >= -1299
 c153: u_a9 - u_a2 - 736 y_a2_proc_1 >= -1299
 c154: u_a2 - u_a9 - 1128 y_a9_proc_2 >= -1274
 c155: u_a2 - u_a9 - 677 y_a9_proc_1 >= -1274
 c156: u_a4 - u_a3 - 545 y_a3_proc_0 >= 0
 c157: u_a4 - u_a3 - 939 y_a3_proc_1 >= -2572
 c158: u_a3 - u_a4 - 768 y_a4_proc_0 >= -1
 c159: u_a3 - u_a4 - 1286 y_a4_proc_1 >= -2573
 c160: u_a5 - u_a3 - 545 y_a3_proc_0 >= 0
 c161: u_a5 - u_a3 - 939 y_a3_proc_1 >= -2572
 c162: u_a3 - u_a5 - 305 y_a5_proc_0 >= -1
 c163: u_a3 - u_a5 - 1005 y_a5_proc_1 >= -2573
 c164: u_a6 - u_a3 - 545 y_a3_proc_0 >= -1299
 c165: u_a6 - u_a3 - 939 y_a3_proc_1 >= -2585
 c166: u_a3 - u_a6 - 1222 y_a6_proc_0 >= -1274
 c167: u_a3 - u_a6 - 908 y_a6_proc_1 >= -2560
 c168: u_a7 - u_a3 - 545 y_a3_proc_0 >= -1299
 c169: u_a7 - u_a3 - 939 y_a3_proc_1 >= -1299
 c170: u_a3 - u_a7 - 622 y_a7_proc_0 >= -1274
 c171: u_a3 - u_a7 - 705 y_a7_proc_1 >= -1274
 c172: u_a8 - u_a3 - 545 y_a3_proc_0 >= 0
 c173: u_a8 - u_a3 - 939 y_a3_proc_1 >= -2572
 c174: u_a3 - u_a8 - 879 y_a8_proc_0 >= -1
 c175: u_a3 - u_a8 - 811 y_a8_proc_1 >= -2573
 c176: u_a9 - u_a3 - 939 y_a3_proc_1 >= -1299
 c177: u_a3 - u_a9 - 677 y_a9_proc_1 >= -1274
 c178: u_a5 - u_a4 - 1201 y_a4_proc_2 >= -2573
 c179: u_a5 - u_a4 - 768 y_a4_proc_0 >= -1
 c180: u_a5 - u_a4 - 1286 y_a4_proc_1 >= -2573
 c181: u_a4 - u_a5 - 1122 y_a5_proc_2 >= -2572
 c182: u_a4 - u_a5 - 305 y_a5_proc_0 >= 0
 c183: u_a4 - u_a5 - 1005 y_a5_proc_1 >= -2572
 c184: u_a6 - u_a4 - 1201 y_a4_proc_2 >= -1299
 c185: u_a6 - u_a4 - 768 y_a4_proc_0 >= -1299
 c186: u_a6 - u_a4 - 1286 y_a4_proc_1 >= -2585
 c187: u_a4 - u_a6 - 911 y_a6_proc_2 >= -1274
 c188: u_a4 - u_a6 - 1222 y_a6_proc_0 >= -1274
 c189: u_a4 - u_a6 - 908 y_a6_proc_1 >= -2560
 c190: u_a7 - u_a4 - 768 y_a4_proc_0 >= -1274
 c191: u_a7 - u_a4 - 1286 y_a4_proc_1 >= -1274
 c192: u_a4 - u_a7 - 622 y_a7_proc_0 >= -1299
 c193: u_a4 - u_a7 - 705 y_a7_proc_1 >= -1299
 c194: u_a8 - u_a4 - 768 y_a4_proc_0 >= -1
 c195: u_a8 - u_a4 - 1286 y_a4_proc_1 >= -2573
 c196: u_a4 - u_a8 - 879 y_a8_proc_0 >= 0
 c197: u_a4 - u_a8 - 811 y_a8_proc_1 >= -2572
 c198: u_a9 - u_a4 - 1201 y_a4_proc_2 >= -2585
 c199: u_a9 - u_a4 - 1286 y_a4_proc_1 >= -1299
 c200: u_a4 - u_a9 - 1128 y_a9_proc_2 >= -2560
 c201: u_a4 - u_a9 - 677 y_a9_proc_1 >= -1274
 c202: u_a6 - u_a5 - 1122 y_a5_proc_2 >= -1299
 c203: u_a6 - u_a5 - 305 y_a5_proc_0 >= -1299
 c204: u_a6 - u_a5 - 1005 y_a5_proc_1 >= -2585
 c205: u_a5 - u_a6 - 911 y_a6_proc_2 >= -1274
 c206: u_a5 - u_a6 - 1222 y_a6_proc_0 >= -1274
 c207: u_a5 - u_a6 - 908 y_a6_proc_1 >= -2560
 c208: u_a7 - u_a5 - 305 y_a5_proc_0 >= -1299
 c209: u_a7 - u_a5 - 1005 y_a5_proc_1 >= -1299
 c210: u_a5 - u_a7 - 622 y_a7_proc_0 >= -1274
 c211: u_a5 - u_a7 - 705 y_a7_proc_1 >= -1274
 c212: u_a8 - u_a5 - 305 y_a5_proc_0 >= -1
 c213: u_a8 - u_a5 - 1005 y_a5_proc_1 >= -2573
 c214: u_a5 - u_a8 - 879 y_a8_proc_0 >= 0
 c215: u_a5 - u_a8 - 811 y_a8_proc_1 >= -2572
 c216: u_a9 - u_a5 - 1122 y_a5_proc_2 >= -2560
 c217: u_a9 - u_a5 - 1005 y_a5_proc_1 >= -1274
 c218: u_a5 - u_a9 - 1128 y_a9_proc_2 >= -2585
 c219: u_a5 - u_a9 - 677 y_a9_proc_1 >= -1299
 c220: u_a7 - u_a6 - 1222 y_a6_proc_0 >= -2560
 c221: u_a7 - u_a6 - 908 y_a6_proc_1 >= -1274
 c222: u_a6 - u_a7 - 622 y_a7_proc_0 >= -2585
 c223: u_a6 - u_a7 - 705 y_a7_proc_1 >= -1299
 c224: u_a8 - u_a6 - 1222 y_a6_proc_0 >= -1274
 c225: u_a8 - u_a6 - 908 y_a6_proc_1 >= -2560
 c226: u_a6 - u_a8 - 879 y_a8_proc_0 >= -1299
 c227: u_a6 - u_a8 - 811 y_a8_proc_1 >= -2585
 c228: u_a9 - u_a6 - 911 y_a6_proc_2 >= -1274
 c229: u_a9 - u_a6 - 908 y_a6_proc_1 >= -1274
 c230: u_a6 - u_a9 - 1128 y_a9_proc_2 >= -1299
 c231: u_a6 - u_a9 - 677 y_a9_proc_1 >= -1299
 c232: u_a8 - u_a7 - 622 y_a7_proc_0 >= -1299
 c233: u_a8 - u_a7 - 705 y_a7_proc_1 >= -1299
 c234: u_a7 - u_a8 - 879 y_a8_proc_0 >= -1274
 c235: u_a7 - u_a8 - 811 y_a8_proc_1 >= -1274
 c236: u_a9 - u_a7 - 705 y_a7_proc_1 >= 0
 c237: u_a7 - u_a9 - 677 y_a9_proc_1 >= -1
 c238: u_a9 - u_a8 - 811 y_a8_proc_1 >= -1274
 c239: u_a8 - u_a9 - 677 y_a9_proc_1 >= -1299

Bounds
End
