benchmark/results/graph__10-1000-0.10-03_3/graph__10-1000-0.10-03_3_QuintonOs_Benders_primal_sub.txt
solution for: Quinton Bounded Benders_primal_sub
objective: 0.000325098
status: OPTIMAL_SOLUTION(2)
u_a0=0.575
u_a2=0.093
u_a3=0.398
u_a4=1.148
u_a5=0.861
u_a6=0.346
u_a7=0.346
u_a8=0.575
u_a9=0.928
tau=0.000
y_a0_proc_1=0.000
y_a1_proc_2=0.000
y_a2_proc_2=0.000
y_a3_proc_0=0.000
y_a4_proc_0=0.000
y_a5_proc_0=0.000
y_a6_proc_2=0.000
y_a7_proc_1=0.000
y_a8_proc_0=0.000
y_a9_proc_1=0.000
